%chk={{METHOD}}-{{BASIS}}.chk
# opt {{METHOD}}/{{BASIS}} geom=connectivity

PPS monomer starting geo opt scrf=pcm

0 1
 C                  1.60816600    1.21304100    0.00008000
 C                  0.20796900    1.21361600    0.00001000
 C                 -0.48602100   -0.00220100   -0.00002600
 C                  0.21615500   -1.21453800    0.00000900
 C                  1.61471800   -1.20523400    0.00008200
 H                  2.14074800    2.15890800    0.00010600
 H                 -0.33096900    2.15577000   -0.00001500
 H                 -0.32219600   -2.15643900   -0.00002300
 H                  2.15385200   -2.14724700    0.00011000
 S                 -2.33439000   -0.08510900   -0.00011100
 H                 -2.55544000    1.27366200   -0.00021400
 C                  2.31620800    0.00651300    0.00011800
 H                  3.40107900    0.00991300    0.00017300

 1 2 1.5 6 1.0 12 1.5
 2 3 1.5 7 1.0
 3 4 1.5 10 1.0
 4 5 1.5 8 1.0
 5 9 1.0 12 1.5
 6
 7
 8
 9
 10 11 1.0
 11
 12 13 1.0
 13

--Link1--
%OldChk={{METHOD}}-{{BASIS}}.chk
%chk={{METHOD}}-{{BASIS}}-c.chk
# opt {{METHOD}}/{{BASIS}} geom=Check scrf=pcm

PPS cation

1 2

--Link1--
%OldChk={{METHOD}}-{{BASIS}}-c.chk
%chk={{METHOD}}-{{BASIS}}-n.chk
# opt {{METHOD}}/{{BASIS}} geom=Check scrf=pcm

PPS Neutral

0 1
